WARNING: Method definition require(Symbol) in module Base at loading.jl:345 overwritten in module ConicBenchmarkUtilities at /home/ubuntu/.julia/v0.5/Requires/src/require.jl:12.
Coin0505I Presolved problem not optimal, resolve after postsolve
Coin0505I Presolved problem not optimal, resolve after postsolve
#SOLVERNAME# PAJ_NORELAX_CBC_ECOS
#SOLVER# Pajarito.PajaritoSolver(2,3600.0,1.0e-5,false,Cbc.CbcMathProgSolverInterface.CbcSolver(Any[(:logLevel,0),(:ratioGap,0.0),(:seconds,3600.0)]),MathProgBase.DefaultMIPSolver(),0,false,true,ECOS.ECOSSolver(Any[(:verbose,false)]),false,false,false,true,false,true,false,true,true,true,true,false,false,true,false,false,false,true,1.0e-10,0.0001,1.0e-6,0.01,1.0e-6)
#INSTANCE# sssd-strong-30-4.cbf.gz
#TIMELIMIT# 3600.0

Transforming original data......Done     0.00s

Creating conic model data......Done     0.00s

Creating MIP model......Done     0.00s

Cone types summary:
Cone       | Count    | Min dim  | Max dim 
       SOC |       12 |        3 |        3

Creating conic subproblem model......Done     0.00s

Starting iterative outer approximation algorithm

Iter | Best obj       | OA obj         | Rel gap     | Time (s)   
   1 |  +2.696122e+05 |  +2.116521e+05 |   2.150e-01 |   1.788e+01
   2 |  +2.696122e+05 |  +2.546212e+05 |   5.560e-02 |   2.116e+01
Presolve 36 (-383) rows, 12 (-232) columns and 108 (-948) elements
Perturbing problem by 0.001 % of 125411.72 - largest nonzero change 0.11695841 (% 9.325955e-05) - largest zero change 0.11572987
0  Obj 160360.01 Primal inf 17.799026 (36)
20  Obj 269612.74
Optimal - objective value 269612.18
After Postsolve, objective 269612.18, infeasibilities - dual 0 (0), primal 0 (0)
Optimal objective 269612.1777 - 20 iterations time 0.002, Presolve 0.00
Cbc0045I Solution with objective value 269612 saved
   3 |  +2.645445e+05 |  +2.614050e+05 |   1.187e-02 |   4.119e+01
Presolve 57 (-394) rows, 13 (-231) columns and 166 (-986) elements
Perturbing problem by 0.001 % of 125411.72 - largest nonzero change 0.2359185 (% 0.00018811519) - largest zero change 0.23145974
0  Obj 160360.14 Primal inf 25.437246 (55)
22  Obj 269613.31
Optimal - objective value 269612.18
After Postsolve, objective 269612.18, infeasibilities - dual 0 (0), primal 0 (0)
Optimal objective 269612.1777 - 22 iterations time 0.002, Presolve 0.00
Cbc0045I Solution with objective value 269612 saved
   4 |  +2.641337e+05 |  +2.636308e+05 |   1.904e-03 |   4.523e+01
Presolve 75 (-408) rows, 13 (-231) columns and 218 (-1030) elements
Perturbing problem by 0.001 % of 125411.72 - largest nonzero change 0.2359185 (% 0.00018811519) - largest zero change 0.23145974
0  Obj 160944.88 Primal inf 33.121874 (73)
28  Obj 264545.34
Optimal - objective value 264544.23
After Postsolve, objective 264544.23, infeasibilities - dual 0 (0), primal 1.3628638e-06 (1)
Presolved model was optimal, full model needs cleaning up
0  Obj 264544.23 Primal inf 1.0462375e-06 (1)
1  Obj 264544.47
Optimal - objective value 264544.47
Optimal objective 264544.4661 - 29 iterations time 0.002, Presolve 0.00
Cbc0045I Solution with objective value 264544 saved
   5 |  +2.641337e+05 |  +2.640936e+05 |   1.516e-04 |   4.853e+01
Presolve 91 (-424) rows, 13 (-231) columns and 266 (-1078) elements
Perturbing problem by 0.001 % of 125411.72 - largest nonzero change 0.471837 (% 0.00037623037) - largest zero change 0.46291948
0  Obj 160782.43 Primal inf 40.542909 (89)
27  Obj 264135.44
Optimal - objective value 264133.31
After Postsolve, objective 264133.31, infeasibilities - dual 0 (0), primal 2.0234063e-06 (5)
Presolved model was optimal, full model needs cleaning up
0  Obj 264133.31 Primal inf 2.4129954e-06 (5)
5  Obj 264133.68
Optimal - objective value 264133.68
Optimal objective 264133.6771 - 32 iterations time 0.002, Presolve 0.00
Cbc0045I Solution with objective value 264134 saved
   6 |  +2.641319e+05 |  +2.641124e+05 |   7.395e-05 |   5.195e+01
Presolve 105 (-440) rows, 13 (-231) columns and 308 (-1126) elements
Perturbing problem by 0.001 % of 125411.72 - largest nonzero change 0.46783364 (% 0.0003730382) - largest zero change 0.40980355
0  Obj 160782.24 Primal inf 47.035292 (103)
27  Obj 264134.31
Optimal - objective value 264133.31
After Postsolve, objective 264133.31, infeasibilities - dual 0 (0), primal 3.2529758e-06 (7)
Presolved model was optimal, full model needs cleaning up
0  Obj 264133.31 Primal inf 3.6601689e-06 (7)
5  Obj 264133.68
Optimal - objective value 264133.68
Optimal objective 264133.6771 - 32 iterations time 0.002, Presolve 0.00
Cbc0045I Solution with objective value 264134 saved
   7 |  +2.641276e+05 |  +2.641223e+05 |   2.016e-05 |   5.800e+01
Presolve 121 (-456) rows, 13 (-231) columns and 356 (-1174) elements
Perturbing problem by 0.001 % of 125411.72 - largest nonzero change 0.11795925 (% 9.4057593e-05) - largest zero change 0.11572987
0  Obj 160877.4 Primal inf 54.473335 (119)
29  Obj 264132.52
Optimal - objective value 264131.92
After Postsolve, objective 264131.92, infeasibilities - dual 0 (0), primal 0 (0)
Optimal objective 264131.9162 - 29 iterations time 0.002, Presolve 0.00
Cbc0045I Solution with objective value 264132 saved
   8 |  +2.641276e+05 |  +2.641276e+05 |   4.541e-10 |   6.510e+01

Pajarito MICP solve summary:
 - Total time (s)       =       6.51e+01
 - Status               =        Optimal
 - Best feasible obj.   =  +2.641276e+05
 - Final OA obj. bound  =  +2.641276e+05
 - Relative opt. gap    =      4.541e-10
 - MIP solve count      =              8
 - Conic solve count    =              7
 - Feas. solution count =              6
 - Integer repeat count =              1

Timers (s):
 - Setup                =       1.54e-03
 -- Transform data      =       1.62e-04
 -- Create conic data   =       7.38e-05
 -- Create MIP data     =       1.13e-03
 -- Load/solve relax    =       0.00e+00
 - Iterative algorithm  =       6.51e+01
 -- Solve MIPs          =       6.51e+01
 -- Solve conic model   =       1.86e-02
 -- Process conic data  =       2.62e-04
 -- Add conic solution  =       5.71e-05
 -- Add dual cuts       =       3.81e-04
 -- Use outer inf/cuts  =       8.94e-04

Presolve 133 (-472) rows, 13 (-231) columns and 392 (-1222) elements
Perturbing problem by 0.001 % of 125411.72 - largest nonzero change 0.11795925 (% 9.4057593e-05) - largest zero change 0.11572987
0  Obj 160839.7 Primal inf 60.017696 (131)
29  Obj 264128.04
Optimal - objective value 264127.44
After Postsolve, objective 264127.44, infeasibilities - dual 0 (0), primal 2.2656182e-06 (5)
Presolved model was optimal, full model needs cleaning up
0  Obj 264127.44 Primal inf 3.3833384e-06 (5)
2  Obj 264127.61
Optimal - objective value 264127.61
Optimal objective 264127.6064 - 31 iterations time 0.002, Presolve 0.00
Cbc0045I Solution with objective value 264128 saved
WARNING: Not solving the conic continuous relaxation problem; Pajarito may return status :MIPFailure if the outer approximation MIP is unbounded
WARNING: Solver does not appear to support adding constraints to an existing model. Hot-start is disabled.
WARNING: Not solving the conic continuous relaxation problem; Pajarito may return status :MIPFailure if the outer approximation MIP is unbounded
#STATUS# Optimal
#OBJVAL# 264127.60649777105
#OBJBOUND# 264127.6063778296
#TIMESOLVER# 65.10559511184692
#TIMEALL# 65.10584592819214
#SOLUTION# [0.0,0.0,1.0,0.0,1.0,0.0,0.0,0.0,1.0,0.0,0.0,0.0,1.0,0.0,0.0,0.0,1.0,0.0,0.0,0.0,1.0,0.0,0.0,0.0,0.0,0.0,0.9999999999999999,0.0,0.0,0.0,0.0,1.0,0.0,0.0,0.0,1.0,0.0,1.0,0.0,0.0,0.0,0.0,0.0,1.0,1.0,0.0,0.0,0.0,0.0,0.0,0.9999999999999999,0.0,0.0,1.0,0.0,0.0,1.0,0.0,0.0,0.0,0.0,0.0,0.0,1.0,1.0,0.0,0.0,0.0,0.0,0.0,0.0,1.0,0.0,0.0,0.0,1.0,0.0,0.0,1.0,0.0,0.0,1.0,0.0,0.0,0.0,0.0,0.0,1.0,0.0,1.0,0.0,0.0,1.0,0.0,0.0,0.0,0.0,1.0,0.0,0.0,0.0,0.0,0.9999999999999999,0.0,0.0,0.0,1.0,0.0,0.0,0.0,0.0,1.0,0.0,0.0,1.0,0.0,0.0,1.0,0.0,0.0,0.0,0.0,1.0,0.0,0.0,1.0,0.0,0.0,1.0,0.0,0.0,1.0,0.689859356090251,0.6141759094075249,0.7006672186626824,0.7090020036610888,-2.4504423859336177e-10,-2.4139411586376744e-10,0.40823469526578443,3.511012844530645e-10,3.513152204651075e-10,0.38048893210370077,-5.1057838734251273e-11,-5.108746841089824e-11,0.41199547143894294,3.1386665878392904e-11,3.167125091714549e-11,0.4148631853253635,0.0,0.3449296781631395,0.34492967811321834,0.14081232600863783,0.3070879545363644,0.30708795454204874,0.11684349448801044,0.3503336093552887,0.3503336093540658,0.14433587271833054,0.3545010018168745,0.3545010018152642,0.1470694097513369,0.6898593560857265,0.6898593560376212,1.6898593546252472,0.614175909415833,0.6141759094216576,1.6141759119243542,0.7006672186609745,0.7006672186597658,1.700667218632165,0.7090020036631371,0.709002003661685,1.7090020042448226,0.6898593560992796,0.6898593561961646,0.6898593615264357,0.6141759093910715,0.6141759093782201,0.6141759005139007,0.7006672186660448,0.7006672186683967,0.7006672191025611,0.7090020036571305,0.7090020036599608,0.7090020020087137]
